results/res_prop_muc/res_Cimatti_mathsat_cores/QF_UF/PEQ004_size7.smt.smt2.out

real	0m1.227s
user	0m1.123s
sys	0m0.066s
