results/res_prop_muc/res_Cimatti_mathsat_cores/QF_UF/PEQ004_size7.smt.smt2.res
unsat
( _c0
  _c1200
  _c1201
  _c1202
  _c1205
  _c1206
  _c1207
  _c1208
  _c1209
  _c1213
  _c1214
  _c1215
  _c1216
  _c1220
  _c1249
  _c1250
  _c1251
  _c1252
  _c1253
  _c1255
  _c1257
  _c1258
  _c1263
  _c1265
  _c1270
  _c1271
  _c1273
  _c1274
  _c1291
  _c1292
  _c1293
  _c1294
  _c1295
  _c1302
  _c1305
  _c1306
  _c1307
  _c1308
  _c1309
  _c1311
  _c1313
  _c1314
  _c1315
  _c1316
  _c1318
  _c1319
  _c1321
  _c1322
  _c1323
  _c1338
  _c1340
  _c1341
  _c1344
  _c1347
  _c1348
  _c1349
  _c1350
  _c1357
  _c1358
  _c1361
  _c1364
  _c1365
  _c1367
  _c1369
  _c1370
  _c1372
  _c1374
  _c1379
  _c1387
  _c1389
  _c1392
  _c1394
  _c1396
  _c1397
  _c1398
  _c1399
  _c1400
  _c1403
  _c1412
  _c1414
  _c1417
  _c1418
  _c1435
  _c1436
  _c1438
  _c1439
  _c1440
  _c1442
  _c1443
  _c1445
  _c1446
  _c1447
  _c1448
  _c1450
  _c1452
  _c1453
  _c1454
  _c1456
  _c1459
  _c1460
  _c1488
  _c1496
  _c1498
  _c1544
  _c1626
  _c1627
  _c1628
  _c1629
  _c1630
  _c1631
  _c1632
  _c1636
  _c1637
  _c1638
  _c1639
  _c1640
  _c1641
  _c1642
  _c1643
  _c1644
  _c1645
  _c1646
  _c1647
  _c1648
  _c1649
  _c1650
  _c1651
  _c1652
  _c1653
  _c1654
  _c1655
  _c794
  _c795
  _c796
  _c797
  _c798
  _c799
  _c800
  _c802
  _c803
  _c804
  _c805
  _c806
  _c807
  _c808
  _c810
  _c811
  _c812
  _c813
  _c814
  _c815
  _c816
  _c818
  _c819
  _c820
  _c821
  _c822
  _c823
  _c824
  _c826
  _c827
  _c828
  _c829
  _c831
  _c836
  _c842
  _c843
  _c844
  _c845
  _c846
  _c847
  _c848 )
